language Essence 1.3

$ vincular mesh param file

$ pattern in paper, picture above
letting mesh_avoidance be { ( sequence(1,3,2), relation( (2, 1), (2, 2), (2, 3), (2, 4) ) } 

$ n Solution for avoidance should be:
$ Avoiding pattern
$ test

$ Contains pattern but breaks mesh
$ test
